1000
150 150
1 120 658
2 120 308
3 120 612
4 120 462
5 120 450
6 119 776
7 119 539
8 119 251
9 119 708
10 119 401
11 119 255
12 119 743
13 119 308
14 118 55
15 118 603
16 118 640
17 118 291
18 118 917
19 118 781
20 118 689
21 118 191
22 117 236
23 117 351
24 117 527
25 117 715
26 117 706
27 117 893
28 117 277
29 117 847
30 117 844
31 117 144
32 117 356
33 117 470
34 117 292
35 117 78
36 117 389
37 117 887
38 117 762
39 116 998
40 116 162
41 116 999
42 116 82
43 116 474
44 116 285
45 116 595
46 116 955
47 116 523
48 116 395
49 115 242
50 115 868
51 115 426
52 115 147
53 115 311
54 115 661
55 115 426
56 115 726
57 115 560
58 115 725
59 114 116
60 114 447
61 114 635
62 114 146
63 114 853
64 114 344
65 114 192
66 114 790
67 114 46
68 114 60
69 114 198
70 114 706
71 113 846
72 113 423
73 113 206
74 113 717
75 113 742
76 113 771
77 112 714
78 112 949
79 112 262
80 112 955
81 112 335
82 112 76
83 112 212
84 112 904
85 112 504
86 111 240
87 111 103
88 111 578
89 111 399
90 111 743
91 111 315
92 111 171
93 111 564
94 111 52
95 111 176
96 111 11
97 111 620
98 111 471
99 111 318
100 111 460
101 110 692
102 110 413
103 110 41
104 110 917
105 110 583
106 110 139
107 109 728
108 109 221
109 109 609
110 109 131
111 109 978
112 109 658
113 109 656
114 108 135
115 108 734
116 108 879
117 108 145
118 108 385
119 108 992
120 108 91
121 108 723
122 107 884
123 107 511
124 107 59
125 107 813
126 107 597
127 107 433
128 107 805
129 106 384
130 106 885
131 106 248
132 106 1000
133 106 316
134 106 346
135 106 705
136 106 367
137 106 74
138 106 463
139 106 527
140 106 833
141 106 173
142 105 84
143 105 321
144 105 210
145 105 862
146 105 604
147 105 254
148 105 945
149 105 987
150 104 954
151 104 166
152 104 490
153 104 118
154 104 667
155 104 890
156 104 995
157 103 186
158 103 632
159 103 134
160 103 149
161 103 682
162 103 508
163 103 274
164 103 729
165 103 508
166 103 222
167 103 786
168 102 742
169 102 623
170 102 699
171 102 833
172 102 337
173 102 662
174 102 503
175 102 891
176 102 973
177 102 808
178 102 854
179 102 183
180 101 893
181 101 697
182 101 447
183 101 195
184 101 56
185 101 174
186 101 810
187 101 8
188 101 798
189 100 64
190 100 504
191 100 435
192 100 76
193 100 767
194 100 178
195 100 606
196 100 520
197 100 200
198 100 731
199 100 234
200 99 567
201 99 55
202 99 436
203 99 251
204 99 727
205 98 294
206 98 783
207 98 436
208 98 786
209 98 20
210 98 313
211 98 225
212 98 347
213 98 266
214 97 111
215 97 839
216 97 726
217 97 787
218 97 412
219 97 486
220 97 583
221 97 314
222 97 250
223 97 583
224 97 114
225 96 720
226 96 432
227 96 470
228 96 532
229 96 207
230 96 648
231 96 240
232 96 871
233 96 418
234 95 897
235 95 685
236 95 293
237 95 660
238 94 489
239 94 841
240 94 324
241 94 215
242 94 771
243 94 428
244 94 248
245 94 973
246 94 293
247 94 397
248 94 885
249 94 185
250 93 828
251 93 675
252 93 408
253 93 878
254 93 77
255 93 278
256 93 940
257 93 833
258 93 419
259 93 30
260 93 965
261 93 633
262 92 529
263 92 183
264 92 736
265 92 740
266 92 241
267 92 367
268 92 809
269 92 5
270 92 771
271 92 813
272 92 420
273 92 421
274 92 600
275 91 676
276 91 911
277 91 509
278 91 748
279 91 738
280 91 534
281 91 198
282 91 7
283 91 876
284 90 944
285 90 663
286 90 517
287 90 446
288 90 554
289 90 726
290 89 369
291 89 567
292 89 933
293 89 74
294 89 739
295 89 876
296 89 438
297 89 208
298 89 74
299 89 652
300 89 926
301 89 369
302 88 379
303 88 987
304 88 704
305 88 849
306 88 118
307 87 447
308 87 819
309 87 965
310 87 834
311 87 250
312 87 74
313 87 222
314 87 720
315 87 572
316 87 471
317 87 457
318 87 510
319 87 726
320 87 725
321 87 373
322 87 748
323 87 376
324 86 47
325 86 619
326 86 345
327 86 238
328 86 760
329 86 548
330 86 456
331 86 239
332 86 920
333 85 856
334 85 739
335 85 279
336 85 782
337 85 0
338 85 526
339 85 573
340 85 116
341 85 243
342 85 102
343 85 651
344 85 768
345 85 956
346 85 280
347 85 543
348 85 913
349 85 55
350 85 162
351 84 162
352 84 943
353 84 555
354 84 526
355 84 261
356 84 243
357 84 148
358 84 457
359 84 588
360 84 366
361 83 409
362 83 856
363 83 115
364 83 617
365 83 316
366 83 240
367 83 473
368 83 457
369 83 91
370 83 229
371 83 81
372 82 112
373 82 299
374 82 600
375 82 11
376 82 713
377 82 876
378 82 459
379 82 120
380 81 844
381 81 797
382 81 227
383 81 838
384 81 932
385 81 100
386 81 933
387 80 298
388 80 140
389 80 687
390 80 381
391 80 163
392 80 362
393 80 54
394 80 859
395 80 822
396 79 966
397 79 927
398 79 419
399 79 323
400 79 439
401 79 630
402 79 902
403 79 133
404 79 744
405 79 954
406 79 277
407 79 712
408 79 10
409 78 847
410 78 251
411 78 216
412 78 417
413 78 185
414 78 249
415 78 142
416 78 934
417 78 325
418 78 356
419 77 404
420 77 227
421 77 0
422 77 704
423 77 719
424 77 12
425 77 651
426 77 779
427 76 574
428 76 749
429 76 877
430 76 382
431 76 372
432 76 846
433 75 795
434 75 303
435 75 121
436 75 784
437 75 945
438 75 849
439 74 968
440 74 971
441 74 841
442 74 320
443 73 428
444 73 348
445 73 741
446 73 821
447 73 814
448 73 492
449 73 329
450 72 684
451 72 352
452 72 246
453 72 707
454 72 19
455 72 940
456 72 950
457 72 200
458 72 670
459 72 108
460 72 322
461 72 414
462 72 261
463 71 462
464 71 776
465 71 260
466 71 832
467 71 932
468 71 267
469 70 330
470 70 479
471 70 843
472 70 873
473 69 323
474 69 38
475 69 894
476 69 520
477 69 337
478 69 11
479 69 187
480 69 509
481 69 911
482 68 268
483 68 138
484 68 315
485 68 115
486 68 700
487 68 362
488 68 962
489 68 526
490 67 33
491 67 547
492 67 491
493 67 238
494 67 977
495 67 261
496 67 306
497 67 102
498 67 503
499 66 115
500 66 554
501 66 860
502 66 793
503 66 179
504 66 694
505 66 383
506 66 583
507 66 199
508 66 975
509 66 466
510 65 789
511 65 240
512 65 39
513 64 919
514 64 588
515 64 338
516 64 575
517 64 301
518 64 0
519 64 55
520 64 696
521 64 676
522 63 424
523 63 504
524 63 533
525 63 817
526 63 883
527 63 948
528 63 616
529 63 774
530 63 955
531 62 291
532 62 545
533 62 731
534 62 806
535 62 111
536 62 390
537 62 826
538 62 840
539 62 393
540 61 454
541 61 362
542 61 443
543 61 562
544 61 652
545 61 465
546 61 55
547 61 434
548 61 451
549 61 893
550 61 53
551 61 516
552 61 146
553 60 162
554 60 757
555 60 139
556 60 764
557 60 893
558 60 55
559 60 336
560 60 762
561 60 858
562 60 193
563 60 475
564 60 824
565 59 135
566 59 929
567 59 442
568 59 178
569 59 659
570 59 888
571 59 26
572 59 394
573 59 457
574 59 527
575 59 10
576 59 709
577 59 100
578 58 524
579 58 875
580 58 497
581 58 246
582 58 815
583 58 121
584 58 326
585 58 661
586 58 743
587 57 383
588 57 862
589 57 758
590 57 242
591 56 533
592 56 748
593 56 597
594 56 221
595 56 265
596 56 950
597 56 285
598 56 968
599 56 397
600 56 176
601 56 546
602 56 406
603 56 39
604 56 302
605 56 309
606 55 145
607 55 590
608 55 407
609 55 435
610 55 219
611 55 57
612 55 495
613 55 764
614 55 30
615 55 996
616 55 148
617 54 837
618 54 915
619 54 502
620 54 717
621 54 955
622 54 792
623 53 692
624 53 772
625 53 416
626 53 663
627 53 232
628 53 887
629 53 752
630 53 377
631 52 524
632 52 425
633 52 708
634 52 439
635 52 862
636 52 71
637 52 978
638 52 140
639 52 918
640 51 403
641 51 721
642 51 452
643 51 344
644 51 128
645 51 945
646 51 518
647 51 335
648 51 714
649 51 75
650 51 218
651 50 962
652 50 0
653 50 48
654 50 148
655 50 389
656 50 875
657 50 840
658 50 547
659 49 836
660 49 383
661 49 821
662 49 715
663 49 495
664 49 841
665 49 251
666 49 740
667 49 169
668 49 495
669 49 287
670 49 346
671 49 906
672 48 899
673 48 231
674 48 672
675 48 701
676 48 427
677 48 480
678 48 274
679 48 700
680 47 921
681 47 100
682 47 224
683 47 64
684 46 285
685 46 825
686 46 704
687 46 455
688 46 430
689 46 897
690 46 323
691 46 949
692 46 244
693 46 544
694 45 572
695 45 303
696 45 106
697 45 490
698 45 772
699 45 883
700 45 918
701 45 650
702 45 549
703 45 536
704 45 503
705 44 329
706 44 456
707 44 871
708 44 802
709 44 30
710 44 324
711 44 167
712 44 799
713 44 611
714 44 528
715 43 881
716 43 199
717 43 942
718 43 624
719 43 385
720 43 921
721 43 304
722 43 631
723 43 160
724 43 94
725 43 593
726 43 449
727 43 559
728 43 971
729 42 671
730 42 729
731 42 809
732 42 594
733 42 531
734 42 504
735 42 29
736 42 144
737 41 395
738 41 441
739 41 737
740 41 386
741 41 681
742 41 974
743 41 17
744 41 620
745 41 636
746 41 523
747 41 937
748 40 347
749 40 314
750 40 687
751 40 157
752 40 721
753 40 102
754 40 161
755 40 479
756 40 70
757 40 445
758 39 898
759 39 208
760 39 946
761 39 191
762 39 603
763 39 678
764 39 364
765 39 538
766 39 57
767 39 862
768 38 159
769 38 289
770 38 145
771 38 254
772 38 347
773 38 940
774 38 316
775 38 760
776 38 644
777 38 594
778 38 198
779 37 218
780 37 143
781 37 570
782 37 838
783 37 605
784 37 780
785 37 713
786 37 638
787 37 142
788 37 745
789 37 456
790 37 377
791 37 332
792 37 907
793 36 185
794 36 99
795 36 275
796 36 67
797 36 745
798 36 340
799 36 864
800 36 210
801 36 766
802 36 257
803 36 340
804 36 37
805 36 299
806 35 253
807 35 343
808 35 157
809 35 881
810 35 594
811 35 417
812 35 991
813 35 785
814 34 565
815 34 125
816 34 105
817 34 705
818 34 404
819 34 797
820 34 179
821 34 141
822 34 600
823 33 380
824 33 694
825 33 998
826 33 701
827 33 4
828 33 179
829 33 587
830 33 864
831 33 332
832 33 307
833 33 179
834 33 651
835 33 568
836 33 529
837 33 945
838 33 479
839 32 928
840 32 916
841 32 858
842 32 27
843 32 216
844 32 695
845 32 148
846 32 294
847 31 228
848 31 284
849 31 967
850 31 244
851 31 592
852 31 156
853 31 824
854 31 453
855 31 526
856 31 518
857 31 37
858 31 286
859 31 226
860 31 645
861 31 41
862 31 464
863 30 499
864 30 690
865 30 993
866 30 633
867 30 303
868 30 79
869 30 273
870 29 138
871 29 586
872 29 204
873 29 717
874 29 692
875 29 497
876 29 789
877 29 52
878 29 744
879 29 500
880 28 267
881 28 148
882 28 309
883 28 106
884 28 347
885 28 252
886 28 134
887 28 3
888 28 834
889 28 226
890 28 351
891 28 394
892 28 851
893 27 987
894 27 984
895 27 646
896 27 942
897 27 757
898 27 970
899 27 41
900 26 649
901 26 573
902 26 223
903 26 854
904 26 117
905 26 584
906 26 706
907 26 561
908 25 932
909 25 684
910 25 111
911 25 258
912 25 114
913 24 233
914 24 575
915 24 933
916 24 780
917 24 859
918 24 14
919 24 91
920 23 986
921 23 573
922 23 818
923 23 92
924 23 149
925 22 817
926 22 77
927 22 952
928 22 272
929 22 455
930 22 77
931 22 890
932 22 727
933 22 53
934 22 435
935 22 951
936 21 575
937 21 858
938 21 421
939 21 141
940 21 527
941 21 864
942 21 775
943 21 338
944 21 248
945 21 0
946 20 977
947 20 619
948 20 884
949 20 334
950 20 868
951 20 169
952 20 310
953 20 991
954 19 268
955 19 782
956 19 703
957 19 864
958 19 379
959 19 750
960 19 225
961 19 774
962 19 262
963 19 175
964 19 146
965 19 54
966 19 457
967 19 506
968 19 795
969 18 69
970 18 847
971 18 102
972 18 94
973 18 168
974 18 444
975 18 449
976 17 884
977 17 325
978 17 329
979 17 325
980 17 35
981 17 763
982 17 371
983 17 337
984 17 616
985 16 191
986 16 521
987 16 904
988 16 888
989 16 814
990 15 176
991 15 179
992 15 994
993 15 517
994 15 88
995 15 169
996 15 325
997 15 636
998 15 475
999 15 384
1000 15 130
